(set-logic QF_S)
(declare-fun var_0xINPUT_25582 () String)
(assert (and (= (len var_0xINPUT_25582) 0) (= (len var_0xINPUT_25582) 0) (not (= var_0xINPUT_25582 "Example:")) (= (len var_0xINPUT_25582) 0) (not (= var_0xINPUT_25582 "4PH2ujcENG"))))
(check-sat var_0xINPUT_25582)